(set-logic QF_NIA)
(set-info :source |
     Constraint systems stating that a matrix interpretation is
     compatible with a rewriting system (weakly compatible with
     all rules, strictly compatible with at least one).

     Contributed by Johannes Waldmann at HTKW Leipzig.
   |)
(set-info :smt-lib-version 2.0)
(set-info :category "crafted")
(set-info :status sat)
(declare-fun n0 () Int)
(assert (>= n0 0))
(declare-fun n1 () Int)
(assert (>= n1 0))
(assert (>= n1 1))
(declare-fun n2 () Int)
(assert (>= n2 0))
(declare-fun n3 () Int)
(assert (>= n3 0))
(assert (>= n3 1))
(declare-fun n4 () Int)
(assert (>= n4 0))
(declare-fun n5 () Int)
(assert (>= n5 0))
(assert (>= n5 1))
(declare-fun n6 () Int)
(assert (>= n6 0))
(declare-fun n7 () Int)
(assert (>= n7 0))
(assert (>= n7 1))
(declare-fun n8 () Int)
(assert (>= n8 0))
(declare-fun n9 () Int)
(assert (>= n9 0))
(assert (>= n9 1))
(declare-fun n10 () Int)
(assert (>= n10 0))
(declare-fun n11 () Int)
(assert (>= n11 0))
(assert (>= n11 1))
(declare-fun n12 () Int)
(assert (>= n12 0))
(declare-fun n13 () Int)
(assert (>= n13 0))
(assert (>= n13 1))
(declare-fun n14 () Int)
(assert (>= n14 0))
(declare-fun n15 () Int)
(assert (>= n15 0))
(assert (>= n15 1))
(declare-fun n16 () Int)
(assert (= n16 (* n13 n0)))
(declare-fun n17 () Int)
(assert (= n17 (+ n12 n16)))
(declare-fun n18 () Int)
(assert (= n18 (* n13 n1)))
(declare-fun n19 () Int)
(assert (= n19 (* n1 n4)))
(declare-fun n20 () Int)
(assert (= n20 (+ n0 n19)))
(declare-fun n21 () Int)
(assert (= n21 (* n1 n5)))
(declare-fun n22 () Int)
(assert (= n22 (* n9 n0)))
(declare-fun n23 () Int)
(assert (= n23 (+ n8 n22)))
(declare-fun n24 () Int)
(assert (= n24 (* n9 n1)))
(declare-fun n25 () Int)
(assert (= n25 (* n1 n8)))
(declare-fun n26 () Int)
(assert (= n26 (+ n0 n25)))
(declare-fun n27 () Int)
(assert (= n27 (* n1 n9)))
(assert (>= n23 n26))
(assert (>= n24 n27))
(declare-fun n28 () Int)
(assert (= n28 (* n9 n6)))
(declare-fun n29 () Int)
(assert (= n29 (+ n8 n28)))
(declare-fun n30 () Int)
(assert (= n30 (* n9 n7)))
(declare-fun n31 () Int)
(assert (= n31 (* n7 n8)))
(declare-fun n32 () Int)
(assert (= n32 (+ n6 n31)))
(declare-fun n33 () Int)
(assert (= n33 (* n7 n9)))
(assert (>= n29 n32))
(assert (>= n30 n33))
(declare-fun n34 () Int)
(assert (= n34 (* n11 n0)))
(declare-fun n35 () Int)
(assert (= n35 (+ n10 n34)))
(declare-fun n36 () Int)
(assert (= n36 (* n11 n1)))
(declare-fun n37 () Int)
(assert (= n37 (* n1 n10)))
(declare-fun n38 () Int)
(assert (= n38 (+ n0 n37)))
(declare-fun n39 () Int)
(assert (= n39 (* n1 n11)))
(assert (>= n35 n38))
(assert (>= n36 n39))
(declare-fun n40 () Int)
(assert (= n40 (* n9 n4)))
(declare-fun n41 () Int)
(assert (= n41 (+ n8 n40)))
(declare-fun n42 () Int)
(assert (= n42 (* n9 n5)))
(declare-fun n43 () Int)
(assert (= n43 (* n15 n20)))
(declare-fun n44 () Int)
(assert (= n44 (+ n14 n43)))
(declare-fun n45 () Int)
(assert (= n45 (* n15 n21)))
(assert (>= n41 n44))
(assert (>= n42 n45))
(declare-fun n46 () Int)
(assert (= n46 (* n1 n14)))
(declare-fun n47 () Int)
(assert (= n47 (+ n0 n46)))
(declare-fun n48 () Int)
(assert (= n48 (* n1 n15)))
(declare-fun n49 () Int)
(assert (= n49 (* n15 n0)))
(declare-fun n50 () Int)
(assert (= n50 (+ n14 n49)))
(declare-fun n51 () Int)
(assert (= n51 (* n15 n1)))
(assert (>= n47 n50))
(assert (>= n48 n51))
(declare-fun n52 () Int)
(assert (= n52 (* n3 n14)))
(declare-fun n53 () Int)
(assert (= n53 (+ n2 n52)))
(declare-fun n54 () Int)
(assert (= n54 (* n3 n15)))
(declare-fun n55 () Int)
(assert (= n55 (* n15 n2)))
(declare-fun n56 () Int)
(assert (= n56 (+ n14 n55)))
(declare-fun n57 () Int)
(assert (= n57 (* n15 n3)))
(assert (>= n53 n56))
(assert (>= n54 n57))
(declare-fun n58 () Int)
(assert (= n58 (* n7 n14)))
(declare-fun n59 () Int)
(assert (= n59 (+ n6 n58)))
(declare-fun n60 () Int)
(assert (= n60 (* n7 n15)))
(declare-fun n61 () Int)
(assert (= n61 (* n13 n6)))
(declare-fun n62 () Int)
(assert (= n62 (+ n12 n61)))
(declare-fun n63 () Int)
(assert (= n63 (* n13 n7)))
(assert (>= n59 n62))
(assert (>= n60 n63))
(declare-fun n64 () Int)
(assert (= n64 (* n1 n12)))
(declare-fun n65 () Int)
(assert (= n65 (+ n0 n64)))
(declare-fun n66 () Int)
(assert (= n66 (* n1 n13)))
(assert (>= n65 n17))
(assert (>= n66 n18))
(declare-fun n67 () Int)
(assert (= n67 (* n3 n12)))
(declare-fun n68 () Int)
(assert (= n68 (+ n2 n67)))
(declare-fun n69 () Int)
(assert (= n69 (* n3 n13)))
(declare-fun n70 () Int)
(assert (= n70 (* n13 n2)))
(declare-fun n71 () Int)
(assert (= n71 (+ n12 n70)))
(declare-fun n72 () Int)
(assert (= n72 (* n13 n3)))
(assert (>= n68 n71))
(assert (>= n69 n72))
(declare-fun n73 () Int)
(assert (= n73 (* n5 n17)))
(declare-fun n74 () Int)
(assert (= n74 (+ n4 n73)))
(declare-fun n75 () Int)
(assert (= n75 (* n5 n18)))
(declare-fun n76 () Int)
(assert (= n76 (* n21 n8)))
(declare-fun n77 () Int)
(assert (= n77 (+ n20 n76)))
(declare-fun n78 () Int)
(assert (= n78 (* n21 n9)))
(assert (>= n74 n77))
(assert (>= n75 n78))
(assert (or (> n23 n26) (> n29 n32) (> n35 n38) (> n41 n44) (> n47 n50) (> n53 n56) (> n59 n62) (> n65 n17) (> n68 n71) (> n74 n77)))
(check-sat)
(exit)
